
<<< setup


<<< generate

Version identifier: 22.1.1.0 | 2022-11-27 | 9160aff4d
Tried aggregator 1 time.
MIQCP Presolve eliminated 353 rows and 1 columns.
MIQCP Presolve modified 2433 coefficients.
Reduced MIQCP has 3832 rows, 3589 columns, and 37159 nonzeros.
Reduced MIQCP has 200 binaries, 0 generals, 0 SOSs, and 0 indicators.
Reduced MIQCP has 564 quadratic constraints.
Presolve time = 0,12 sec. (120,32 ticks)
Probing fixed 0 vars, tightened 2303 bounds.
Probing time = 0,06 sec. (57,53 ticks)
Clique table members: 810.
MIP emphasis: balance optimality and feasibility.
MIP search method: dynamic search.
Parallel mode: deterministic, using up to 12 threads.
Root relaxation solution time = 0,01 sec. (45,58 ticks)

        Nodes                                         Cuts/
   Node  Left     Objective  IInf  Best Integer    Best Bound    ItCnt     Gap

      0     0     3453,3671     0                  11447,6298      291         
      0     0     3440,8788   131                     Cone: 1      485         
      0     0     3436,2316   128                     Cone: 2      654         
      0     0     3433,5274   144                     Cone: 3      800         
      0     0     3432,6062   152                     Cone: 4      906         
      0     0     3431,0393   157                     Cone: 5     1045         
      0     0     3430,1147   155                     Cone: 6     1182         
      0     0     3318,3831   159                   Cone: 942     4240         
      0     0     3318,3815   182                  Cone: 1140     4477         
      0     0     3318,3806   199                  Cone: 1336     4671         
      0     0     3318,3801   200                  Cone: 1527     4838         
      0     0     3318,3799   200                  Cone: 1709     5006         
      0     0     3318,3797   200                  Cone: 1878     5166         
      0     0     3318,3797   200                  Cone: 2011     5296         
      0     0     3318,3797   200                  Cone: 2109     5399         
      0     0     3318,3797   200                  Cone: 2162     5463         
      0     0     3318,3796   200                  Cone: 2204     5511         
      0     0     3318,3796   200                  Cone: 2236     5548         
      0     0     3318,3796   200                  Cone: 2246     5564         
      0     0     3318,3796   200                  Cone: 2254     5575         
      0     0     3318,3796   200                  Cone: 2263     5588         
      0     0     3318,3796   200                  Cone: 2270     5597         
      0     0     3318,3796   200                  Cone: 2276     5605         
      0     0     3318,3796   200                   3318,3796     5605         
      0     0     3314,5405   193                   Cuts: 798     8490         
      0     0     3311,9040   195                   Cuts: 202     8869         
